data/cnf8-38.cnf
c
c 2020-04-22T12:24:24.373757
c Raymond Wei
c
p cnf 8 38
c
-8 -6 -1 0
4 -1 6 0
-8 -7 3 0
-8 -6 2 0
8 -7 -4 0
8 -5 7 0
5 -2 -1 0
2 3 -4 0
-6 3 4 0
-7 -4 5 0
-8 -1 7 0
-5 -4 -1 0
-4 -2 7 0
-4 5 -2 0
8 -7 6 0
-8 -4 -1 0
8 1 -6 0
1 -6 -4 0
2 -6 -5 0
-7 -6 -5 0
-8 -7 -4 0
2 4 5 0
-8 -7 -3 0
8 2 -1 0
5 -3 7 0
8 -3 -1 0
-7 -6 -3 0
8 5 -3 0
1 -6 -2 0
-7 -4 -1 0
1 2 4 0
-6 2 -1 0
8 -4 5 0
3 -4 6 0
1 2 -3 0
-7 -6 -2 0
-8 3 -4 0
1 -6 4 0
%
0
