mydata/cnf8-38.cnf.cnf
c
c 2020-04-21T22:57:23.141888
c Raymond Wei
c
p cnf 8 38
c
5 1 -3 0
2 3 8 0
-7 -2 -6 0
4 -1 -7 0
-6 -2 -8 0
-1 8 4 0
5 -1 -4 0
1 5 -7 0
5 -8 -7 0
6 3 8 0
-2 1 -6 0
-1 -8 -7 0
-8 3 6 0
-4 6 7 0
-1 -4 -8 0
5 -6 2 0
-7 -3 -6 0
-7 -8 5 0
1 -3 5 0
-1 -3 5 0
-7 -2 -3 0
-8 2 -3 0
-5 2 7 0
-5 1 2 0
3 -4 1 0
-5 -4 -7 0
-5 3 -4 0
-5 -4 8 0
4 8 -7 0
-6 -3 -8 0
4 7 5 0
1 -6 4 0
3 -7 8 0
-5 8 3 0
-3 8 -5 0
5 4 6 0
-4 -3 -6 0
-5 -6 3 0
%
0
